Gurobi Optimizer version 9.1.2 build v9.1.2rc0 (linux64)
Thread count: 36 physical cores, 72 logical processors, using up to 32 threads
Optimize a model with 12 rows, 57 columns and 590 nonzeros
Model fingerprint: 0xf32eec78
Model has 47 quadratic constraints
Coefficient statistics:
  Matrix range     [2e-05, 3e+00]
  QMatrix range    [1e+00, 1e+00]
  QLMatrix range   [1e+00, 1e+00]
  Objective range  [8e-03, 7e-01]
  Bounds range     [1e+00, 1e+00]
  RHS range        [1e+00, 1e+00]
Presolve removed 9 rows and 0 columns

Continuous model is non-convex -- solving as a MIP.

Presolve removed 9 rows and 0 columns
Presolve time: 0.00s
Presolved: 189 rows, 57 columns, 443 nonzeros
Presolved model has 47 bilinear constraint(s)
Variable types: 57 continuous, 0 integer (0 binary)

Root relaxation: objective -1.743721e+00, 44 iterations, 0.00 seconds

    Nodes    |    Current Node    |     Objective Bounds      |     Work
 Expl Unexpl |  Obj  Depth IntInf | Incumbent    BestBd   Gap | It/Node Time

     0     0   -1.74372    0   38          -   -1.74372      -     -    0s
H    0     0                       0.6147548   -1.74372   384%     -    0s
     0     0   -1.64739    0    1    0.61475   -1.64739   368%     -    0s
H    0     0                      -1.6450460   -1.64739  0.14%     -    0s
     0     0     cutoff    0        -1.64505   -1.64505  0.00%     -    0s

Cutting planes:
  RLT: 25
  BQP: 3

Explored 1 nodes (76 simplex iterations) in 0.01 seconds
Thread count was 32 (of 72 available processors)

Solution count 2: -1.64505 0.614755 
No other solutions better than -1.64505

Optimal solution found (tolerance 1.00e-04)
Best objective -1.645045978473e+00, best bound -1.645045978473e+00, gap 0.0000%

User-callback calls 78, time in user-callback 0.00 sec
Gurobi Optimizer version 9.1.2 build v9.1.2rc0 (linux64)
Thread count: 36 physical cores, 72 logical processors, using up to 32 threads
Optimize a model with 360 rows, 572 columns and 2212 nonzeros
Model fingerprint: 0xdf7c906c
Model has 261 quadratic constraints
Coefficient statistics:
  Matrix range     [9e-04, 8e+00]
  QMatrix range    [1e+00, 1e+00]
  QLMatrix range   [1e+00, 1e+00]
  Objective range  [4e-02, 8e+00]
  Bounds range     [1e+00, 8e+00]
  RHS range        [1e+00, 8e+00]
Presolve removed 5 rows and 0 columns

Continuous model is non-convex -- solving as a MIP.

Presolve removed 48 rows and 41 columns
Presolve time: 0.00s
Presolved: 1356 rows, 531 columns, 4083 nonzeros
Presolved model has 261 bilinear constraint(s)
Variable types: 531 continuous, 0 integer (0 binary)

Root relaxation: objective -6.476034e+02, 286 iterations, 0.00 seconds

    Nodes    |    Current Node    |     Objective Bounds      |     Work
 Expl Unexpl |  Obj  Depth IntInf | Incumbent    BestBd   Gap | It/Node Time

     0     0 -647.60342    0   56          - -647.60342      -     -    0s
     0     0 -646.91625    0   56          - -646.91625      -     -    0s
     0     0 -646.73828    0   56          - -646.73828      -     -    0s
     0     0 -646.63533    0   56          - -646.63533      -     -    0s
     0     2 -646.63533    0   56          - -646.63533      -     -    0s
* 3941  2600              72    -625.5178082 -632.46413  1.11%   4.1    0s
* 3943  2600              73    -625.5201674 -632.46413  1.11%   4.1    0s
H 5967  2180                    -625.7493589 -628.94914  0.51%   3.7    0s
H12353  2270                    -625.8786892 -628.62784  0.44%   4.0    1s
*33687  6749              82    -625.9526426 -626.97169  0.16%   4.2    3s
 61389 11307 -626.10388   53   16 -625.95264 -626.70424  0.12%   4.2    5s
*132547 19432              81    -625.9562158 -626.44314  0.08%   4.1    8s
*132549 19432              82    -625.9562166 -626.44314  0.08%   4.1    8s
H137911 19957                    -625.9566185 -626.43131  0.08%   4.0    9s
 153164 22567     cutoff   51      -625.95662 -626.39636  0.07%   4.0   10s
*183582 25283              95    -625.9765820 -626.34723  0.06%   3.9   11s
 259019 30380 -626.01231   49   20 -625.97658 -626.25199  0.04%   3.7   15s
 365655 27968     cutoff   59      -625.97658 -626.15696  0.03%   3.6   20s
 472644 10128 -626.00755   58   18 -625.97658 -626.05414  0.01%   3.6   25s

Explored 488952 nodes (1767176 simplex iterations) in 25.72 seconds
Thread count was 32 (of 72 available processors)

Solution count 8: -625.977 -625.957 -625.956 ... -625.518

Optimal solution found (tolerance 1.00e-04)
Best objective -6.259765819812e+02, best bound -6.260321837450e+02, gap 0.0089%

User-callback calls 979072, time in user-callback 0.24 sec



objective value: -625.976581981217
objective bound: -626.0321837449878
w_opt: 1-dimensional DenseAxisArray{Float64,1,...} with index sets:
    Dimension 1, [(25, 1, 2), (25, 1, 1), (25, 1, 14), (20, 1, 2), (20, 1, 1), (20, 1, 14), (1, 1, 2), (1, 1, 1), (1, 1, 14), (2, 1, 2)  …  (20, 15, 23), (20, 15, 3), (8, 15, 30), (8, 15, 29), (8, 15, 23), (8, 15, 3), (2, 15, 30), (2, 15, 29), (2, 15, 23), (2, 15, 3)]
And data, a 261-element Vector{Float64}:
 1.6222137466256275
 0.0
 0.0
 0.3777711150267081
 0.0
 0.0
 0.0
 0.0
 0.0
 0.0
 0.0
 0.0
 0.0
 0.0
 0.0
 0.0
 1.3154133900942042
 0.0
 0.0
 1.6845866099057958
 0.0
 0.0
 0.0
 0.0
 0.0
 0.0
 0.0
 0.0
 0.0
 0.08241651906694757
 0.021456401511772673
 0.0
 0.0
 0.0
 0.0
 4.2329968710272565
 1.1020227678999703
 0.0
 0.0
 0.0
 0.0
 0.0
 0.0
 0.0
 0.0
 0.0
 0.0
 0.0
 0.0
 1.0612307953942661
 0.38483836165504365
 0.0
 0.0
 0.0
 0.0
 0.0
 0.0
 0.0
 0.0
 2.0
 1.0
 0.0
 0.0
 0.0
 0.0
 0.0
 0.0
 0.0
 0.0
 0.0
 0.0
 0.12691784268774636
 0.3807535280632391
 0.0
 0.75
 2.25
 0.0
 0.5692324106107856
 1.7076972318323567
 0.0
 0.0
 0.0
 0.0
 0.0
 0.0
 0.0
 0.0
 0.0
 0.0
 0.0
 0.0
 0.0
 0.553849746701468
 1.661549240104404
 0.0
 0.0
 0.0
 0.0
 0.0
 0.0
 0.0
 1.8139752911332974
 0.8291520536769713
 0.3568726551897312
 0.0
 0.0
 0.0
 0.0
 0.0
 0.0
 0.0
 0.0
 0.0
 0.0
 0.0
 0.0
 0.0
 0.0
 4.366727818564715
 2.921686893267542
 0.0
 0.0
 0.0
 0.426333874383942
 0.28525141378380137
 0.0
 0.0
 0.0
 0.0
 0.0
 0.0
 0.0
 0.0
 0.0
 0.0
 0.0
 0.0
 0.0
 0.0
 0.0
 0.0
 0.0
 0.0
 0.0
 0.0
 0.0
 0.0
 0.0
 0.0
 0.0
 0.0
 0.0852731902214832
 0.0
 0.48204690503790504
 0.24102345251895252
 0.0
 0.0
 1.517953094962095
 0.7589765474810475
 0.0
 0.0
 0.0
 0.0
 0.0
 0.0
 0.0
 0.0
 0.0
 0.0
 0.0
 0.0
 0.0
 0.0
 1.5643921183541039
 0.0
 0.0
 0.0
 0.5314289820412375
 0.0
 0.0
 0.0
 0.0
 0.0
 0.0
 0.0
 0.0
 0.0
 0.0
 0.0
 0.0
 0.0
 0.0
 0.0
 0.0
 1.4685710179587625
 0.9062626773701781
 0.0
 0.0
 0.0
 0.0
 0.0
 0.0
 0.0
 0.0
 0.0
 0.0
 1.4483015822118377
 0.724139463405311
 1.1327700607651897e-5
 0.5516984177881624
 0.2758446178178897
 3.810647056840713e-6
 0.0
 0.0
 0.0
 0.0
 0.0
 0.0
 0.0
 0.0
 0.0
 0.0
 0.0
 0.0
 0.0
 0.692739640720892
 0.9516313715972781
 0.0
 0.0
 0.0
 0.0
 0.0
 0.0
 0.0
 0.0
 0.0
 0.0
 0.0
 0.0
 0.0
 0.0
 0.0
 0.0
 0.0
 0.0
 0.0
 0.0
 0.0
 0.0
 0.0
 0.0
 0.0
 0.0
 0.0
 0.0
 0.0
 0.0
 0.8271214347348473
 4.876520830588257
 0.0
 0.7770709802994329
x_ij_opt: 1-dimensional DenseAxisArray{Float64,1,...} with index sets:
    Dimension 1, [(43, 30), (43, 22), (43, 6), (44, 22), (45, 30), (45, 29), (45, 28), (45, 24), (45, 23), (40, 29)  …  (5, 7), (5, 14), (6, 4), (6, 3), (1, 14), (1, 10), (1, 23), (1, 1), (3, 2), (3, 1)]
And data, a 116-element Vector{Float64}:
 0.0
 0.43560788164589614
 1.288414711832257
 0.0
 1.1728785652651528
 0.0
 1.307260359279108
 0.0
 0.0
 0.0
 0.0
 0.0
 0.0
 0.0
 0.0
 0.0
 0.0
 0.0
 0.2723838936914792
 0.0
 0.0
 0.0
 0.0
 0.0
 0.0
 0.0
 0.0
 2.0
 0.0
 0.0
 0.0
 0.0
 0.0
 0.0
 0.0
 0.0
 0.0
 0.0
 0.0
 0.0
 0.0
 0.0
 0.0
 0.711585288167743
 0.0
 0.0
 0.0
 0.0
 0.0
 0.0
 0.0
 0.0
 0.0
 0.0
 0.0
 0.9041788996046587
 0.0
 1.206938307051344
 0.1708479463230287
 1.9147268097785168
 0.0
 0.0
 0.0
 0.0
 6.0
 0.0
 0.0
 0.0
 0.0
 0.7276161063085208
 0.0
 0.0
 0.0
 0.0
 0.0
 0.0
 0.048368628402721936
 0.9387692046057339
 0.0
 0.0
 0.0
 0.0
 0.0
 0.0
 0.0
 0.0
 0.0
 0.0
 0.0
 0.0
 0.0
 0.0
 0.0
 0.0
 0.0
 0.0
 0.0
 1.591877679929521e-5
 0.0
 0.2229290197005671
 0.0
 0.0
 0.0
 0.0
 0.0
 0.13828836311266524
 0.0
 0.0
 0.6845866099057958
 0.0
 0.04773634575403739
 0.0
 0.09373732262982197
 5.643127344810268
 0.0
 0.0
x_il_opt: 1-dimensional DenseAxisArray{Float64,1,...} with index sets:
    Dimension 1, [(43, 15), (43, 14), (44, 15), (44, 13), (44, 3), (40, 14), (40, 2), (41, 14), (42, 6), (37, 13)  …  (4, 13), (5, 2), (5, 7), (5, 9), (6, 11), (1, 1), (1, 6), (1, 3), (2, 1), (2, 15)]
And data, a 71-element Vector{Float64}:
 0.0
 0.0
 0.0
 2.1724523733177565
 0.10387292057872025
 1.64437101231817
 0.0
 0.0
 0.5076713707509855
 0.8275468462531089
 0.0
 2.374833695328941
 0.0
 0.0
 3.0
 0.0
 0.0
 0.0
 7.288414711832257
 0.0
 0.0
 0.0
 3.0
 0.7230703575568576
 2.276929642443142
 0.0
 0.7115852881677434
 0.0
 2.0958211003953413
 0.0
 1.6222137466256275
 0.0
 0.0
 0.0
 0.0
 0.0
 0.0
 0.0
 0.3777711150267081
 0.0
 0.0
 0.0
 3.0
 0.0
 0.0
 2.276929642443142
 0.0
 3.0
 0.0
 0.0
 0.0
 0.0
 0.0
 0.0
 1.4460691570493098
 0.0
 0.0
 5.335019638927227
 0.0
 0.0
 0.0
 0.0
 0.0
 0.0
 0.0852731902214832
 0.0
 0.0
 2.215398986805872
 0.0
 0.0
 6.480713245622537
x_lj_opt: 1-dimensional DenseAxisArray{Float64,1,...} with index sets:
    Dimension 1, [(15, 30), (15, 29), (15, 23), (15, 3), (14, 28), (14, 27), (14, 10), (14, 24), (13, 26), (13, 25)  …  (3, 6), (3, 5), (3, 29), (2, 4), (2, 3), (2, 1), (2, 5), (1, 2), (1, 1), (1, 14)]
And data, a 53-element Vector{Float64}:
 0.8271214347348473
 4.876520830588257
 0.0
 0.7770709802994329
 0.692739640720892
 0.9516313715972781
 0.0
 0.0
 2.0
 0.9999840812232007
 1.5138347664492611e-5
 1.4685710179587625
 0.9062626773701781
 0.0
 1.5643921183541039
 0.0
 0.0
 0.0
 0.5314289820412375
 0.0
 0.0
 2.0
 1.0
 0.0852731902214832
 0.0
 0.0
 4.7930616929486565
 3.2069383070513435
 0.0
 0.0
 1.8139752911332974
 0.8291520536769713
 0.3568726551897312
 2.0
 6.0
 0.0
 2.0
 1.0
 0.0
 0.0
 1.0612307953942661
 0.38483836165504365
 0.0
 0.0
 4.315413390094204
 1.123479169411743
 1.3154133900942042
 0.0
 0.0
 1.6845866099057958
 1.9999848616523355
 0.0
 0.0
q_opt: 1-dimensional DenseAxisArray{Float64,1,...} with index sets:
    Dimension 1, [(43, 15), (43, 14), (44, 15), (44, 13), (44, 3), (40, 14), (40, 2), (41, 14), (42, 6), (37, 13)  …  (4, 13), (5, 2), (5, 7), (5, 9), (6, 11), (1, 1), (1, 6), (1, 3), (2, 1), (2, 15)]
And data, a 71-element Vector{Float64}:
  0.0
  0.0
  0.0
  0.7241507911059187
  0.01909817475566308
  1.0
  0.0
  0.0
  0.06345892134387318
  0.27584920889408127
  0.0
  1.0
  0.0
  0.0
  0.375
  0.0
  0.0
  0.0
  0.9110518389790321
  0.0
  0.0
  0.0
  1.0
  0.2410235610723814
  0.2846162053053928
 -1.0855342888471675e-7
  0.08894816102096792
  0.0
  1.0
  0.0
  0.8111127191679607
  0.0
  0.0
  0.0
  0.0
  0.0
  0.0
  0.0
  0.18888728083203943
  0.0
  0.0
  0.0
  1.0
  0.0
  0.0
  0.7589765474810475
  0.0
  1.0
  0.0
  0.0
  0.0
  0.0
  0.0
  0.0
  1.0
  0.0
  0.0
  0.9809018252443369
  0.0
  0.0
  0.0
  0.0
  0.0
  0.0
  1.0
  0.0
  0.0
  0.276924873350734
  0.0
  0.0
  1.0
GUROBI solution time: 25.715862035751343



